# PSI4 file for H2 UHF energy

memory 10 GB

molecule mol {
0 1
H 
H 1 R
symmetry c1
}

Rvals = [.25,.5,.75,1,1.25,1.5,2,3,4]

table = Table(rows=["R"], cols=["E(UHF)"])

set {
  scf_type df
  mp2_type df
  cc_type df
  freeze_core true
  reference uhf
  guess_mix True
  guess gwh
}

for R in Rvals:
    mol.R = R
    euhf = energy()
    table[R] = [euhf]

print_out('Table of Results \n')
print_out(str(table))

